c preprocessed version of RandomGNM_100_100, 24 vertices, 42 edges
p td 24 42
0 1
14 0
19 0
1 2
1 9
3 2
20 2
4 3
16 3
4 5
10 4
18 4
6 5
19 5
6 7
13 6
7 8
7 16
15 7
8 9
10 8
10 11
11 12
13 12
14 13
15 14
16 17
18 17
18 19
20 18
20 19
21 23
21 4
21 22
21 12
21 17
21 15
22 23
22 9
22 10
23 11
23 20
